(synth-fun condition ((initial_read Int) (start Int)) Bool ((Start Int (-2 -1 0 1 (+ Start Start) (- Start Start) initial_read start)) (StartBool Bool (true false (< Start Start) (<= Start Start) (and StartBool StartBool) (or StartBool StartBool) (not StartBool) (= Start Start) (= StartBool StartBool)))))
(declare-var initial_read Int)
(declare-var start Int)
(constraint (=> (condition initial_read start) (and (or (not (= False (= -1 initial_read))) (<= 0 (- initial_read start))) (or (not (and (= -1 initial_read) (< start -1))) (<= 0 (- initial_read start))))))
(sketch condition (or (not (= initial_read -1)) (< start initial_read)))